; benchmark generated from python API
(set-info :status unknown)
(declare-fun syscall_stub_newfstatat_83_64 () (_ BitVec 64))
(declare-fun mem_c0000f45_79_992 () (_ BitVec 992))
(declare-fun mem_ffffffffff800010_215_32 () (_ BitVec 32))
(declare-fun mem_fffffffff8000010_190_32 () (_ BitVec 32))
(declare-fun mem_c000000000000010_175_32 () (_ BitVec 32))
(declare-fun mem_ffffffffffe00010_151_32 () (_ BitVec 32))
(declare-fun mem_0_144_32 () (_ BitVec 32))
(declare-fun mem_4800000010110_129_32 () (_ BitVec 32))
(declare-fun mem_c0001010_98_32 () (_ BitVec 32))
(declare-fun mem_4800000010100_130_64 () (_ BitVec 64))
(declare-fun mem_fffffffffffffff0_145_64 () (_ BitVec 64))
(declare-fun mem_ffffffffffe00000_152_64 () (_ BitVec 64))
(declare-fun mem_c000000000000000_176_64 () (_ BitVec 64))
(declare-fun mem_fffffffff8000000_191_64 () (_ BitVec 64))
(declare-fun mem_ffffffffff800000_216_64 () (_ BitVec 64))
(assert
 (let ((?x47 ((_ extract 31 0) syscall_stub_newfstatat_83_64)))
 (let (($x52 (bvule ?x47 (_ bv4294963200 32))))
 (not $x52))))
(assert
 (let ((?x3699 ((_ extract 891 891) mem_c0000f45_79_992)))
 (= (_ bv0 1) ?x3699)))
(assert
 (let ((?x2189 ((_ extract 900 900) mem_c0000f45_79_992)))
 (= (_ bv0 1) ?x2189)))
(assert
 (let ((?x2374 ((_ extract 839 832) mem_c0000f45_79_992)))
 (let ((?x2364 ((_ extract 831 824) mem_c0000f45_79_992)))
 (let ((?x2349 ((_ extract 823 816) mem_c0000f45_79_992)))
 (let ((?x2357 ((_ extract 815 808) mem_c0000f45_79_992)))
 (let ((?x2362 ((_ extract 807 800) mem_c0000f45_79_992)))
 (let ((?x2363 ((_ extract 799 792) mem_c0000f45_79_992)))
 (let ((?x593 (concat (concat ((_ extract 783 776) mem_c0000f45_79_992) ((_ extract 791 784) mem_c0000f45_79_992)) ?x2363)))
 (let ((?x4215 (concat (concat (concat (concat ?x593 ?x2362) ?x2357) ?x2349) ?x2364)))
 (let ((?x3812 (concat ?x4215 ?x2374)))
 (let ((?x2427 ((_ extract 775 768) mem_c0000f45_79_992)))
 (let ((?x2419 ((_ extract 767 760) mem_c0000f45_79_992)))
 (let ((?x2429 ((_ extract 759 752) mem_c0000f45_79_992)))
 (let ((?x2417 ((_ extract 751 744) mem_c0000f45_79_992)))
 (let ((?x2410 ((_ extract 743 736) mem_c0000f45_79_992)))
 (let ((?x2411 ((_ extract 735 728) mem_c0000f45_79_992)))
 (let ((?x4124 (concat (concat ((_ extract 719 712) mem_c0000f45_79_992) ((_ extract 727 720) mem_c0000f45_79_992)) ?x2411)))
 (let ((?x4642 (concat ?x4124 ?x2410)))
 (let ((?x3823 (concat (concat (concat (concat ?x4642 ?x2417) ?x2429) ?x2419) ?x2427)))
 (bvule ?x3823 ?x3812))))))))))))))))))))
(assert
 (let ((?x8705 ((_ extract 888 888) mem_c0000f45_79_992)))
 (= (_ bv0 1) ?x8705)))
(assert
 (let ((?x11985 ((_ extract 135 128) mem_c0000f45_79_992)))
 (= (_ bv0 8) ?x11985)))
(assert
 (let ((?x13685 ((_ extract 127 120) mem_c0000f45_79_992)))
 (= (_ bv1 8) ?x13685)))
(assert
 (let ((?x13262 ((_ extract 119 112) mem_c0000f45_79_992)))
 (= (_ bv1 8) ?x13262)))
(assert
 (let ((?x13139 ((_ extract 111 104) mem_c0000f45_79_992)))
 (= (_ bv0 8) ?x13139)))
(assert
 (let ((?x12096 ((_ extract 103 96) mem_c0000f45_79_992)))
 (= (_ bv0 8) ?x12096)))
(assert
 (let ((?x12093 ((_ extract 95 88) mem_c0000f45_79_992)))
 (= (_ bv128 8) ?x12093)))
(assert
 (let ((?x12627 ((_ extract 87 80) mem_c0000f45_79_992)))
 (= (_ bv4 8) ?x12627)))
(assert
 (let ((?x12622 ((_ extract 79 72) mem_c0000f45_79_992)))
 (= (_ bv0 8) ?x12622)))
(assert
 (let ((?x14887 ((_ extract 327 320) mem_c0000f45_79_992)))
 (let ((?x14869 ((_ extract 319 312) mem_c0000f45_79_992)))
 (let ((?x14893 ((_ extract 311 304) mem_c0000f45_79_992)))
 (let ((?x14875 ((_ extract 303 296) mem_c0000f45_79_992)))
 (let ((?x14872 ((_ extract 295 288) mem_c0000f45_79_992)))
 (let ((?x14857 ((_ extract 287 280) mem_c0000f45_79_992)))
 (let ((?x15107 (concat (concat ((_ extract 271 264) mem_c0000f45_79_992) ((_ extract 279 272) mem_c0000f45_79_992)) ?x14857)))
 (let ((?x15071 (concat (concat (concat (concat (concat ?x15107 ?x14872) ?x14875) ?x14893) ?x14869) ?x14887)))
 (let ((?x96985 (bvmul (_ bv18446744073709551615 64) ?x15071)))
 (let ((?x15059 ((_ extract 199 192) mem_c0000f45_79_992)))
 (let ((?x15057 ((_ extract 191 184) mem_c0000f45_79_992)))
 (let ((?x15055 ((_ extract 183 176) mem_c0000f45_79_992)))
 (let ((?x15053 ((_ extract 175 168) mem_c0000f45_79_992)))
 (let ((?x15049 ((_ extract 167 160) mem_c0000f45_79_992)))
 (let ((?x15050 ((_ extract 159 152) mem_c0000f45_79_992)))
 (let ((?x21207 (concat (concat ((_ extract 143 136) mem_c0000f45_79_992) ((_ extract 151 144) mem_c0000f45_79_992)) ?x15050)))
 (let ((?x20542 (concat (concat (concat (concat (concat ?x21207 ?x15049) ?x15053) ?x15055) ?x15057) ?x15059)))
 (let ((?x97029 (bvadd ?x20542 ?x96985)))
 (let ((?x113781 ((_ extract 31 31) mem_ffffffffff800010_215_32)))
 (let ((?x188248 (concat (concat (concat (concat (concat ?x113781 ?x113781) ?x113781) ?x113781) ?x113781) ?x113781)))
 (let ((?x188412 (concat (concat (concat (concat (concat ?x188248 ?x113781) ?x113781) ?x113781) ?x113781) ?x113781)))
 (let ((?x189340 (concat (concat (concat (concat (concat ?x188412 ?x113781) ?x113781) ?x113781) ?x113781) ?x113781)))
 (let ((?x190512 (concat (concat (concat (concat (concat ?x189340 ?x113781) ?x113781) ?x113781) ?x113781) ?x113781)))
 (let ((?x187827 (concat (concat (concat (concat (concat ?x190512 ?x113781) ?x113781) ?x113781) ?x113781) ?x113781)))
 (let ((?x190457 (concat (concat (concat (concat (concat ?x187827 ?x113781) ?x113781) ?x113781) ?x113781) ?x113781)))
 (let ((?x184658 (concat (concat ?x190457 ?x113781) mem_ffffffffff800010_215_32)))
 (let ((?x73318 ((_ extract 31 31) mem_fffffffff8000010_190_32)))
 (let ((?x122700 (concat (concat (concat (concat (concat ?x73318 ?x73318) ?x73318) ?x73318) ?x73318) ?x73318)))
 (let ((?x113115 (concat (concat (concat (concat (concat ?x122700 ?x73318) ?x73318) ?x73318) ?x73318) ?x73318)))
 (let ((?x113868 (concat (concat (concat (concat (concat ?x113115 ?x73318) ?x73318) ?x73318) ?x73318) ?x73318)))
 (let ((?x117224 (concat (concat (concat (concat (concat ?x113868 ?x73318) ?x73318) ?x73318) ?x73318) ?x73318)))
 (let ((?x113874 (concat (concat (concat (concat (concat ?x117224 ?x73318) ?x73318) ?x73318) ?x73318) ?x73318)))
 (let ((?x113572 (concat (concat (concat (concat (concat ?x113874 ?x73318) ?x73318) ?x73318) ?x73318) ?x73318)))
 (let ((?x123033 (concat (concat ?x113572 ?x73318) mem_fffffffff8000010_190_32)))
 (let ((?x57781 ((_ extract 31 31) mem_c000000000000010_175_32)))
 (let ((?x84567 (concat (concat (concat (concat (concat ?x57781 ?x57781) ?x57781) ?x57781) ?x57781) ?x57781)))
 (let ((?x71273 (concat (concat (concat (concat (concat ?x84567 ?x57781) ?x57781) ?x57781) ?x57781) ?x57781)))
 (let ((?x78784 (concat (concat (concat (concat (concat ?x71273 ?x57781) ?x57781) ?x57781) ?x57781) ?x57781)))
 (let ((?x68885 (concat (concat (concat (concat (concat ?x78784 ?x57781) ?x57781) ?x57781) ?x57781) ?x57781)))
 (let ((?x76514 (concat (concat (concat (concat (concat ?x68885 ?x57781) ?x57781) ?x57781) ?x57781) ?x57781)))
 (let ((?x79590 (concat (concat (concat (concat (concat ?x76514 ?x57781) ?x57781) ?x57781) ?x57781) ?x57781)))
 (let ((?x74134 (concat (concat ?x79590 ?x57781) mem_c000000000000010_175_32)))
 (let ((?x49529 ((_ extract 31 31) mem_ffffffffffe00010_151_32)))
 (let ((?x51270 (concat (concat (concat (concat (concat ?x49529 ?x49529) ?x49529) ?x49529) ?x49529) ?x49529)))
 (let ((?x53700 (concat (concat (concat (concat (concat ?x51270 ?x49529) ?x49529) ?x49529) ?x49529) ?x49529)))
 (let ((?x48475 (concat (concat (concat (concat (concat ?x53700 ?x49529) ?x49529) ?x49529) ?x49529) ?x49529)))
 (let ((?x55276 (concat (concat (concat (concat (concat ?x48475 ?x49529) ?x49529) ?x49529) ?x49529) ?x49529)))
 (let ((?x50985 (concat (concat (concat (concat (concat ?x55276 ?x49529) ?x49529) ?x49529) ?x49529) ?x49529)))
 (let ((?x48657 (concat (concat (concat (concat (concat ?x50985 ?x49529) ?x49529) ?x49529) ?x49529) ?x49529)))
 (let ((?x58105 (concat (concat ?x48657 ?x49529) mem_ffffffffffe00010_151_32)))
 (let ((?x41042 ((_ extract 31 31) mem_0_144_32)))
 (let ((?x48241 (concat (concat (concat (concat (concat ?x41042 ?x41042) ?x41042) ?x41042) ?x41042) ?x41042)))
 (let ((?x47767 (concat (concat (concat (concat (concat ?x48241 ?x41042) ?x41042) ?x41042) ?x41042) ?x41042)))
 (let ((?x48431 (concat (concat (concat (concat (concat ?x47767 ?x41042) ?x41042) ?x41042) ?x41042) ?x41042)))
 (let ((?x49561 (concat (concat (concat (concat (concat ?x48431 ?x41042) ?x41042) ?x41042) ?x41042) ?x41042)))
 (let ((?x48843 (concat (concat (concat (concat (concat ?x49561 ?x41042) ?x41042) ?x41042) ?x41042) ?x41042)))
 (let ((?x48837 (concat (concat (concat (concat (concat ?x48843 ?x41042) ?x41042) ?x41042) ?x41042) ?x41042)))
 (let ((?x49976 (concat (concat ?x48837 ?x41042) mem_0_144_32)))
 (let ((?x26769 ((_ extract 31 31) mem_4800000010110_129_32)))
 (let ((?x38950 (concat (concat (concat (concat (concat ?x26769 ?x26769) ?x26769) ?x26769) ?x26769) ?x26769)))
 (let ((?x41045 (concat (concat (concat (concat (concat ?x38950 ?x26769) ?x26769) ?x26769) ?x26769) ?x26769)))
 (let ((?x41403 (concat (concat (concat (concat (concat ?x41045 ?x26769) ?x26769) ?x26769) ?x26769) ?x26769)))
 (let ((?x40406 (concat (concat (concat (concat (concat ?x41403 ?x26769) ?x26769) ?x26769) ?x26769) ?x26769)))
 (let ((?x40881 (concat (concat (concat (concat (concat ?x40406 ?x26769) ?x26769) ?x26769) ?x26769) ?x26769)))
 (let ((?x40483 (concat (concat (concat (concat (concat ?x40881 ?x26769) ?x26769) ?x26769) ?x26769) ?x26769)))
 (let ((?x40789 (concat (concat ?x40483 ?x26769) mem_4800000010110_129_32)))
 (let ((?x15063 ((_ extract 711 704) mem_c0000f45_79_992)))
 (let ((?x15088 ((_ extract 703 696) mem_c0000f45_79_992)))
 (let ((?x15060 ((_ extract 695 688) mem_c0000f45_79_992)))
 (let ((?x15062 ((_ extract 687 680) mem_c0000f45_79_992)))
 (let ((?x15075 ((_ extract 679 672) mem_c0000f45_79_992)))
 (let ((?x15070 ((_ extract 671 664) mem_c0000f45_79_992)))
 (let ((?x29710 (concat (concat ((_ extract 655 648) mem_c0000f45_79_992) ((_ extract 663 656) mem_c0000f45_79_992)) ?x15070)))
 (let ((?x31872 (concat (concat (concat (concat (concat ?x29710 ?x15075) ?x15062) ?x15060) ?x15088) ?x15063)))
 (let ((?x31697 (bvmul (_ bv18446744073709551615 64) ?x31872)))
 (let ((?x2427 ((_ extract 775 768) mem_c0000f45_79_992)))
 (let ((?x2419 ((_ extract 767 760) mem_c0000f45_79_992)))
 (let ((?x2429 ((_ extract 759 752) mem_c0000f45_79_992)))
 (let ((?x2417 ((_ extract 751 744) mem_c0000f45_79_992)))
 (let ((?x2410 ((_ extract 743 736) mem_c0000f45_79_992)))
 (let ((?x2411 ((_ extract 735 728) mem_c0000f45_79_992)))
 (let ((?x4124 (concat (concat ((_ extract 719 712) mem_c0000f45_79_992) ((_ extract 727 720) mem_c0000f45_79_992)) ?x2411)))
 (let ((?x4642 (concat ?x4124 ?x2410)))
 (let ((?x3823 (concat (concat (concat (concat ?x4642 ?x2417) ?x2429) ?x2419) ?x2427)))
 (let ((?x32022 (bvadd ?x3823 ?x31697)))
 (let (($x39731 (bvsle ?x32022 ?x40789)))
 (let ((?x42315 (ite $x39731 ?x32022 ?x40789)))
 (let (($x48816 (bvsle ?x42315 ?x49976)))
 (let ((?x49839 (ite $x48816 ?x42315 ?x49976)))
 (let (($x50690 (bvsle ?x49839 ?x58105)))
 (let ((?x49038 (ite $x50690 ?x49839 ?x58105)))
 (let (($x79414 (bvsle ?x49038 ?x74134)))
 (let ((?x74619 (ite $x79414 ?x49038 ?x74134)))
 (let (($x117707 (bvsle ?x74619 ?x123033)))
 (let ((?x113588 (ite $x117707 ?x74619 ?x123033)))
 (let (($x75170 (bvsle ?x113588 ?x184658)))
 (let ((?x189070 (ite $x75170 ?x113588 ?x184658)))
 (let ((?x588105 (bvmul (_ bv18446744073709551615 64) ?x189070)))
 (let ((?x588034 (bvadd ?x32022 ?x588105)))
 (let (($x380486 (bvule ?x588034 ?x97029)))
 (not $x380486))))))))))))))))))))))))))))))))))))))))))))))))))))))))))))))))))))))))))))))))))))))))))))))))))))))
(assert
 (let ((?x2357 ((_ extract 815 808) mem_c0000f45_79_992)))
 (let ((?x2417 ((_ extract 751 744) mem_c0000f45_79_992)))
 (let (($x1690 (= ?x2417 ?x2357)))
 (let (($x3670 (not $x1690)))
 (let ((?x2362 ((_ extract 807 800) mem_c0000f45_79_992)))
 (let ((?x2410 ((_ extract 743 736) mem_c0000f45_79_992)))
 (let (($x1703 (= ?x2410 ?x2362)))
 (let (($x3664 (not $x1703)))
 (let ((?x2345 ((_ extract 783 776) mem_c0000f45_79_992)))
 (let ((?x2400 ((_ extract 719 712) mem_c0000f45_79_992)))
 (let (($x1701 (= ?x2400 ?x2345)))
 (let (($x3671 (not $x1701)))
 (let ((?x2363 ((_ extract 799 792) mem_c0000f45_79_992)))
 (let ((?x2411 ((_ extract 735 728) mem_c0000f45_79_992)))
 (let (($x1704 (= ?x2411 ?x2363)))
 (let (($x3672 (not $x1704)))
 (let ((?x2346 ((_ extract 791 784) mem_c0000f45_79_992)))
 (let ((?x2401 ((_ extract 727 720) mem_c0000f45_79_992)))
 (let (($x1693 (= ?x2401 ?x2346)))
 (let (($x4136 (not $x1693)))
 (let ((?x2364 ((_ extract 831 824) mem_c0000f45_79_992)))
 (let ((?x2419 ((_ extract 767 760) mem_c0000f45_79_992)))
 (let (($x1155 (= ?x2419 ?x2364)))
 (let (($x4137 (not $x1155)))
 (let ((?x2374 ((_ extract 839 832) mem_c0000f45_79_992)))
 (let ((?x2427 ((_ extract 775 768) mem_c0000f45_79_992)))
 (let (($x1152 (= ?x2427 ?x2374)))
 (let (($x4139 (not $x1152)))
 (let ((?x2349 ((_ extract 823 816) mem_c0000f45_79_992)))
 (let ((?x2429 ((_ extract 759 752) mem_c0000f45_79_992)))
 (let (($x1714 (= ?x2429 ?x2349)))
 (let (($x4539 (not $x1714)))
 (let (($x6038 (or $x4539 $x4139 $x4137 $x4136 $x3672 $x3671 $x3664 $x3670)))
 (let (($x9215 (not $x6038)))
 (let ((?x4533 (concat (concat (concat (concat (concat ?x2345 ?x2346) ?x2363) ?x2362) ?x2357) ?x2349)))
 (let ((?x4215 (concat ?x4533 ?x2364)))
 (let ((?x3812 (concat ?x4215 ?x2374)))
 (let ((?x3646 (bvmul (_ bv18446744073709551615 64) ?x3812)))
 (let ((?x3809 (concat (concat (concat (concat (concat ?x2400 ?x2401) ?x2411) ?x2410) ?x2417) ?x2429)))
 (let ((?x3823 (concat (concat ?x3809 ?x2419) ?x2427)))
 (let ((?x3827 (bvadd ?x3823 ?x3646)))
 (let ((?x2482 ((_ extract 63 63) ?x3827)))
 (let (($x2285 (= (_ bv1 1) ?x2482)))
 (or $x2285 $x9215)))))))))))))))))))))))))))))))))))))))))))))
(assert
 (= (_ bv4294967295 32) mem_c0001010_98_32))
(assert
 (= (_ bv18446744073709551600 64) mem_4800000010100_130_64))
(assert
 (= (_ bv18446744073707454464 64) mem_fffffffffffffff0_145_64))
(assert
 (= (_ bv13835058055282163712 64) mem_ffffffffffe00000_152_64))
(assert
 (= (_ bv18446744073575333888 64) mem_c000000000000000_176_64))
(assert
 (= (_ bv18446744073701163008 64) mem_fffffffff8000000_191_64))
(assert
 (= (_ bv0 64) mem_ffffffffff800000_216_64))
(assert
 (let ((?x113781 ((_ extract 31 31) mem_ffffffffff800010_215_32)))
 (let ((?x188248 (concat (concat (concat (concat (concat ?x113781 ?x113781) ?x113781) ?x113781) ?x113781) ?x113781)))
 (let ((?x188412 (concat (concat (concat (concat (concat ?x188248 ?x113781) ?x113781) ?x113781) ?x113781) ?x113781)))
 (let ((?x189340 (concat (concat (concat (concat (concat ?x188412 ?x113781) ?x113781) ?x113781) ?x113781) ?x113781)))
 (let ((?x190512 (concat (concat (concat (concat (concat ?x189340 ?x113781) ?x113781) ?x113781) ?x113781) ?x113781)))
 (let ((?x187827 (concat (concat (concat (concat (concat ?x190512 ?x113781) ?x113781) ?x113781) ?x113781) ?x113781)))
 (let ((?x190457 (concat (concat (concat (concat (concat ?x187827 ?x113781) ?x113781) ?x113781) ?x113781) ?x113781)))
 (let ((?x184658 (concat (concat ?x190457 ?x113781) mem_ffffffffff800010_215_32)))
 (let ((?x73318 ((_ extract 31 31) mem_fffffffff8000010_190_32)))
 (let ((?x122700 (concat (concat (concat (concat (concat ?x73318 ?x73318) ?x73318) ?x73318) ?x73318) ?x73318)))
 (let ((?x113115 (concat (concat (concat (concat (concat ?x122700 ?x73318) ?x73318) ?x73318) ?x73318) ?x73318)))
 (let ((?x113868 (concat (concat (concat (concat (concat ?x113115 ?x73318) ?x73318) ?x73318) ?x73318) ?x73318)))
 (let ((?x117224 (concat (concat (concat (concat (concat ?x113868 ?x73318) ?x73318) ?x73318) ?x73318) ?x73318)))
 (let ((?x113874 (concat (concat (concat (concat (concat ?x117224 ?x73318) ?x73318) ?x73318) ?x73318) ?x73318)))
 (let ((?x113572 (concat (concat (concat (concat (concat ?x113874 ?x73318) ?x73318) ?x73318) ?x73318) ?x73318)))
 (let ((?x123033 (concat (concat ?x113572 ?x73318) mem_fffffffff8000010_190_32)))
 (let ((?x57781 ((_ extract 31 31) mem_c000000000000010_175_32)))
 (let ((?x84567 (concat (concat (concat (concat (concat ?x57781 ?x57781) ?x57781) ?x57781) ?x57781) ?x57781)))
 (let ((?x71273 (concat (concat (concat (concat (concat ?x84567 ?x57781) ?x57781) ?x57781) ?x57781) ?x57781)))
 (let ((?x78784 (concat (concat (concat (concat (concat ?x71273 ?x57781) ?x57781) ?x57781) ?x57781) ?x57781)))
 (let ((?x68885 (concat (concat (concat (concat (concat ?x78784 ?x57781) ?x57781) ?x57781) ?x57781) ?x57781)))
 (let ((?x76514 (concat (concat (concat (concat (concat ?x68885 ?x57781) ?x57781) ?x57781) ?x57781) ?x57781)))
 (let ((?x79590 (concat (concat (concat (concat (concat ?x76514 ?x57781) ?x57781) ?x57781) ?x57781) ?x57781)))
 (let ((?x74134 (concat (concat ?x79590 ?x57781) mem_c000000000000010_175_32)))
 (let ((?x49529 ((_ extract 31 31) mem_ffffffffffe00010_151_32)))
 (let ((?x51270 (concat (concat (concat (concat (concat ?x49529 ?x49529) ?x49529) ?x49529) ?x49529) ?x49529)))
 (let ((?x53700 (concat (concat (concat (concat (concat ?x51270 ?x49529) ?x49529) ?x49529) ?x49529) ?x49529)))
 (let ((?x48475 (concat (concat (concat (concat (concat ?x53700 ?x49529) ?x49529) ?x49529) ?x49529) ?x49529)))
 (let ((?x55276 (concat (concat (concat (concat (concat ?x48475 ?x49529) ?x49529) ?x49529) ?x49529) ?x49529)))
 (let ((?x50985 (concat (concat (concat (concat (concat ?x55276 ?x49529) ?x49529) ?x49529) ?x49529) ?x49529)))
 (let ((?x48657 (concat (concat (concat (concat (concat ?x50985 ?x49529) ?x49529) ?x49529) ?x49529) ?x49529)))
 (let ((?x58105 (concat (concat ?x48657 ?x49529) mem_ffffffffffe00010_151_32)))
 (let ((?x41042 ((_ extract 31 31) mem_0_144_32)))
 (let ((?x48241 (concat (concat (concat (concat (concat ?x41042 ?x41042) ?x41042) ?x41042) ?x41042) ?x41042)))
 (let ((?x47767 (concat (concat (concat (concat (concat ?x48241 ?x41042) ?x41042) ?x41042) ?x41042) ?x41042)))
 (let ((?x48431 (concat (concat (concat (concat (concat ?x47767 ?x41042) ?x41042) ?x41042) ?x41042) ?x41042)))
 (let ((?x49561 (concat (concat (concat (concat (concat ?x48431 ?x41042) ?x41042) ?x41042) ?x41042) ?x41042)))
 (let ((?x48843 (concat (concat (concat (concat (concat ?x49561 ?x41042) ?x41042) ?x41042) ?x41042) ?x41042)))
 (let ((?x48837 (concat (concat (concat (concat (concat ?x48843 ?x41042) ?x41042) ?x41042) ?x41042) ?x41042)))
 (let ((?x49976 (concat (concat ?x48837 ?x41042) mem_0_144_32)))
 (let ((?x26769 ((_ extract 31 31) mem_4800000010110_129_32)))
 (let ((?x38950 (concat (concat (concat (concat (concat ?x26769 ?x26769) ?x26769) ?x26769) ?x26769) ?x26769)))
 (let ((?x41045 (concat (concat (concat (concat (concat ?x38950 ?x26769) ?x26769) ?x26769) ?x26769) ?x26769)))
 (let ((?x41403 (concat (concat (concat (concat (concat ?x41045 ?x26769) ?x26769) ?x26769) ?x26769) ?x26769)))
 (let ((?x40406 (concat (concat (concat (concat (concat ?x41403 ?x26769) ?x26769) ?x26769) ?x26769) ?x26769)))
 (let ((?x40881 (concat (concat (concat (concat (concat ?x40406 ?x26769) ?x26769) ?x26769) ?x26769) ?x26769)))
 (let ((?x40483 (concat (concat (concat (concat (concat ?x40881 ?x26769) ?x26769) ?x26769) ?x26769) ?x26769)))
 (let ((?x40789 (concat (concat ?x40483 ?x26769) mem_4800000010110_129_32)))
 (let ((?x15063 ((_ extract 711 704) mem_c0000f45_79_992)))
 (let ((?x15088 ((_ extract 703 696) mem_c0000f45_79_992)))
 (let ((?x15060 ((_ extract 695 688) mem_c0000f45_79_992)))
 (let ((?x15062 ((_ extract 687 680) mem_c0000f45_79_992)))
 (let ((?x15075 ((_ extract 679 672) mem_c0000f45_79_992)))
 (let ((?x15070 ((_ extract 671 664) mem_c0000f45_79_992)))
 (let ((?x29710 (concat (concat ((_ extract 655 648) mem_c0000f45_79_992) ((_ extract 663 656) mem_c0000f45_79_992)) ?x15070)))
 (let ((?x31872 (concat (concat (concat (concat (concat ?x29710 ?x15075) ?x15062) ?x15060) ?x15088) ?x15063)))
 (let ((?x31697 (bvmul (_ bv18446744073709551615 64) ?x31872)))
 (let ((?x2427 ((_ extract 775 768) mem_c0000f45_79_992)))
 (let ((?x2419 ((_ extract 767 760) mem_c0000f45_79_992)))
 (let ((?x2429 ((_ extract 759 752) mem_c0000f45_79_992)))
 (let ((?x2417 ((_ extract 751 744) mem_c0000f45_79_992)))
 (let ((?x2410 ((_ extract 743 736) mem_c0000f45_79_992)))
 (let ((?x2411 ((_ extract 735 728) mem_c0000f45_79_992)))
 (let ((?x4124 (concat (concat ((_ extract 719 712) mem_c0000f45_79_992) ((_ extract 727 720) mem_c0000f45_79_992)) ?x2411)))
 (let ((?x4642 (concat ?x4124 ?x2410)))
 (let ((?x3823 (concat (concat (concat (concat ?x4642 ?x2417) ?x2429) ?x2419) ?x2427)))
 (let ((?x32022 (bvadd ?x3823 ?x31697)))
 (let (($x39731 (bvsle ?x32022 ?x40789)))
 (let ((?x42315 (ite $x39731 ?x32022 ?x40789)))
 (let (($x48816 (bvsle ?x42315 ?x49976)))
 (let ((?x49839 (ite $x48816 ?x42315 ?x49976)))
 (let (($x50690 (bvsle ?x49839 ?x58105)))
 (let ((?x49038 (ite $x50690 ?x49839 ?x58105)))
 (let (($x79414 (bvsle ?x49038 ?x74134)))
 (let ((?x74619 (ite $x79414 ?x49038 ?x74134)))
 (let (($x117707 (bvsle ?x74619 ?x123033)))
 (let ((?x113588 (ite $x117707 ?x74619 ?x123033)))
 (let (($x75170 (bvsle ?x113588 ?x184658)))
 (let ((?x189070 (ite $x75170 ?x113588 ?x184658)))
 (let ((?x588105 (bvmul (_ bv18446744073709551615 64) ?x189070)))
 (let ((?x110719 (bvadd (_ bv100 64) ?x3823)))
 (let ((?x110063 (bvadd ?x110719 ?x31697)))
 (let ((?x586275 (bvadd ?x110063 ?x588105)))
 (bvule ?x586275 (_ bv9223372039002259555 64))))))))))))))))))))))))))))))))))))))))))))))))))))))))))))))))))))))))))))))))))))))
(assert
 (let ((?x113781 ((_ extract 31 31) mem_ffffffffff800010_215_32)))
 (let ((?x188248 (concat (concat (concat (concat (concat ?x113781 ?x113781) ?x113781) ?x113781) ?x113781) ?x113781)))
 (let ((?x188412 (concat (concat (concat (concat (concat ?x188248 ?x113781) ?x113781) ?x113781) ?x113781) ?x113781)))
 (let ((?x189340 (concat (concat (concat (concat (concat ?x188412 ?x113781) ?x113781) ?x113781) ?x113781) ?x113781)))
 (let ((?x190512 (concat (concat (concat (concat (concat ?x189340 ?x113781) ?x113781) ?x113781) ?x113781) ?x113781)))
 (let ((?x187827 (concat (concat (concat (concat (concat ?x190512 ?x113781) ?x113781) ?x113781) ?x113781) ?x113781)))
 (let ((?x190457 (concat (concat (concat (concat (concat ?x187827 ?x113781) ?x113781) ?x113781) ?x113781) ?x113781)))
 (let ((?x184658 (concat (concat ?x190457 ?x113781) mem_ffffffffff800010_215_32)))
 (let ((?x73318 ((_ extract 31 31) mem_fffffffff8000010_190_32)))
 (let ((?x122700 (concat (concat (concat (concat (concat ?x73318 ?x73318) ?x73318) ?x73318) ?x73318) ?x73318)))
 (let ((?x113115 (concat (concat (concat (concat (concat ?x122700 ?x73318) ?x73318) ?x73318) ?x73318) ?x73318)))
 (let ((?x113868 (concat (concat (concat (concat (concat ?x113115 ?x73318) ?x73318) ?x73318) ?x73318) ?x73318)))
 (let ((?x117224 (concat (concat (concat (concat (concat ?x113868 ?x73318) ?x73318) ?x73318) ?x73318) ?x73318)))
 (let ((?x113874 (concat (concat (concat (concat (concat ?x117224 ?x73318) ?x73318) ?x73318) ?x73318) ?x73318)))
 (let ((?x113572 (concat (concat (concat (concat (concat ?x113874 ?x73318) ?x73318) ?x73318) ?x73318) ?x73318)))
 (let ((?x123033 (concat (concat ?x113572 ?x73318) mem_fffffffff8000010_190_32)))
 (let ((?x57781 ((_ extract 31 31) mem_c000000000000010_175_32)))
 (let ((?x84567 (concat (concat (concat (concat (concat ?x57781 ?x57781) ?x57781) ?x57781) ?x57781) ?x57781)))
 (let ((?x71273 (concat (concat (concat (concat (concat ?x84567 ?x57781) ?x57781) ?x57781) ?x57781) ?x57781)))
 (let ((?x78784 (concat (concat (concat (concat (concat ?x71273 ?x57781) ?x57781) ?x57781) ?x57781) ?x57781)))
 (let ((?x68885 (concat (concat (concat (concat (concat ?x78784 ?x57781) ?x57781) ?x57781) ?x57781) ?x57781)))
 (let ((?x76514 (concat (concat (concat (concat (concat ?x68885 ?x57781) ?x57781) ?x57781) ?x57781) ?x57781)))
 (let ((?x79590 (concat (concat (concat (concat (concat ?x76514 ?x57781) ?x57781) ?x57781) ?x57781) ?x57781)))
 (let ((?x74134 (concat (concat ?x79590 ?x57781) mem_c000000000000010_175_32)))
 (let ((?x49529 ((_ extract 31 31) mem_ffffffffffe00010_151_32)))
 (let ((?x51270 (concat (concat (concat (concat (concat ?x49529 ?x49529) ?x49529) ?x49529) ?x49529) ?x49529)))
 (let ((?x53700 (concat (concat (concat (concat (concat ?x51270 ?x49529) ?x49529) ?x49529) ?x49529) ?x49529)))
 (let ((?x48475 (concat (concat (concat (concat (concat ?x53700 ?x49529) ?x49529) ?x49529) ?x49529) ?x49529)))
 (let ((?x55276 (concat (concat (concat (concat (concat ?x48475 ?x49529) ?x49529) ?x49529) ?x49529) ?x49529)))
 (let ((?x50985 (concat (concat (concat (concat (concat ?x55276 ?x49529) ?x49529) ?x49529) ?x49529) ?x49529)))
 (let ((?x48657 (concat (concat (concat (concat (concat ?x50985 ?x49529) ?x49529) ?x49529) ?x49529) ?x49529)))
 (let ((?x58105 (concat (concat ?x48657 ?x49529) mem_ffffffffffe00010_151_32)))
 (let ((?x41042 ((_ extract 31 31) mem_0_144_32)))
 (let ((?x48241 (concat (concat (concat (concat (concat ?x41042 ?x41042) ?x41042) ?x41042) ?x41042) ?x41042)))
 (let ((?x47767 (concat (concat (concat (concat (concat ?x48241 ?x41042) ?x41042) ?x41042) ?x41042) ?x41042)))
 (let ((?x48431 (concat (concat (concat (concat (concat ?x47767 ?x41042) ?x41042) ?x41042) ?x41042) ?x41042)))
 (let ((?x49561 (concat (concat (concat (concat (concat ?x48431 ?x41042) ?x41042) ?x41042) ?x41042) ?x41042)))
 (let ((?x48843 (concat (concat (concat (concat (concat ?x49561 ?x41042) ?x41042) ?x41042) ?x41042) ?x41042)))
 (let ((?x48837 (concat (concat (concat (concat (concat ?x48843 ?x41042) ?x41042) ?x41042) ?x41042) ?x41042)))
 (let ((?x49976 (concat (concat ?x48837 ?x41042) mem_0_144_32)))
 (let ((?x26769 ((_ extract 31 31) mem_4800000010110_129_32)))
 (let ((?x38950 (concat (concat (concat (concat (concat ?x26769 ?x26769) ?x26769) ?x26769) ?x26769) ?x26769)))
 (let ((?x41045 (concat (concat (concat (concat (concat ?x38950 ?x26769) ?x26769) ?x26769) ?x26769) ?x26769)))
 (let ((?x41403 (concat (concat (concat (concat (concat ?x41045 ?x26769) ?x26769) ?x26769) ?x26769) ?x26769)))
 (let ((?x40406 (concat (concat (concat (concat (concat ?x41403 ?x26769) ?x26769) ?x26769) ?x26769) ?x26769)))
 (let ((?x40881 (concat (concat (concat (concat (concat ?x40406 ?x26769) ?x26769) ?x26769) ?x26769) ?x26769)))
 (let ((?x40483 (concat (concat (concat (concat (concat ?x40881 ?x26769) ?x26769) ?x26769) ?x26769) ?x26769)))
 (let ((?x40789 (concat (concat ?x40483 ?x26769) mem_4800000010110_129_32)))
 (let ((?x15063 ((_ extract 711 704) mem_c0000f45_79_992)))
 (let ((?x15088 ((_ extract 703 696) mem_c0000f45_79_992)))
 (let ((?x15060 ((_ extract 695 688) mem_c0000f45_79_992)))
 (let ((?x15062 ((_ extract 687 680) mem_c0000f45_79_992)))
 (let ((?x15075 ((_ extract 679 672) mem_c0000f45_79_992)))
 (let ((?x15070 ((_ extract 671 664) mem_c0000f45_79_992)))
 (let ((?x29710 (concat (concat ((_ extract 655 648) mem_c0000f45_79_992) ((_ extract 663 656) mem_c0000f45_79_992)) ?x15070)))
 (let ((?x31872 (concat (concat (concat (concat (concat ?x29710 ?x15075) ?x15062) ?x15060) ?x15088) ?x15063)))
 (let ((?x31697 (bvmul (_ bv18446744073709551615 64) ?x31872)))
 (let ((?x2427 ((_ extract 775 768) mem_c0000f45_79_992)))
 (let ((?x2419 ((_ extract 767 760) mem_c0000f45_79_992)))
 (let ((?x2429 ((_ extract 759 752) mem_c0000f45_79_992)))
 (let ((?x2417 ((_ extract 751 744) mem_c0000f45_79_992)))
 (let ((?x2410 ((_ extract 743 736) mem_c0000f45_79_992)))
 (let ((?x2411 ((_ extract 735 728) mem_c0000f45_79_992)))
 (let ((?x4124 (concat (concat ((_ extract 719 712) mem_c0000f45_79_992) ((_ extract 727 720) mem_c0000f45_79_992)) ?x2411)))
 (let ((?x4642 (concat ?x4124 ?x2410)))
 (let ((?x3823 (concat (concat (concat (concat ?x4642 ?x2417) ?x2429) ?x2419) ?x2427)))
 (let ((?x32022 (bvadd ?x3823 ?x31697)))
 (let (($x39731 (bvsle ?x32022 ?x40789)))
 (let ((?x42315 (ite $x39731 ?x32022 ?x40789)))
 (let (($x48816 (bvsle ?x42315 ?x49976)))
 (let ((?x49839 (ite $x48816 ?x42315 ?x49976)))
 (let (($x50690 (bvsle ?x49839 ?x58105)))
 (let ((?x49038 (ite $x50690 ?x49839 ?x58105)))
 (let (($x79414 (bvsle ?x49038 ?x74134)))
 (let ((?x74619 (ite $x79414 ?x49038 ?x74134)))
 (let (($x117707 (bvsle ?x74619 ?x123033)))
 (let ((?x113588 (ite $x117707 ?x74619 ?x123033)))
 (let (($x75170 (bvsle ?x113588 ?x184658)))
 (let ((?x189070 (ite $x75170 ?x113588 ?x184658)))
 (let ((?x588336 ((_ extract 63 63) ?x189070)))
 (= (_ bv0 1) ?x588336))))))))))))))))))))))))))))))))))))))))))))))))))))))))))))))))))))))))))))))))))
(minimize mem_fffffffff8000010_190_32)
(maximize mem_0_144_32)
(maximize mem_4800000010110_129_32)
(maximize mem_c0000f45_79_992)
(maximize mem_ffffffffff800010_215_32)
(maximize mem_ffffffffffe00000_152_64)
(minimize mem_0_144_32)
(maximize mem_4800000010100_130_64)
(maximize mem_fffffffff8000000_191_64)
(minimize mem_ffffffffff800000_216_64)
(minimize mem_ffffffffff800010_215_32)
(maximize mem_fffffffff8000010_190_32)
(minimize mem_c000000000000000_176_64)
(minimize mem_fffffffffffffff0_145_64)
(minimize mem_4800000010110_129_32)
(maximize mem_c000000000000000_176_64)
(minimize mem_c0000f45_79_992)
(maximize mem_c0001010_98_32)
(maximize syscall_stub_newfstatat_83_64)
(minimize mem_c0001010_98_32)
(maximize mem_fffffffffffffff0_145_64)
(maximize mem_c000000000000010_175_32)
(minimize mem_fffffffff8000000_191_64)
(minimize mem_c000000000000010_175_32)
(maximize mem_ffffffffff800000_216_64)
(maximize mem_ffffffffffe00010_151_32)
(minimize mem_4800000010100_130_64)
(minimize mem_ffffffffffe00000_152_64)
(minimize syscall_stub_newfstatat_83_64)
(check-sat)
(get-objectives)
